NAME 
ROWS
 N  OBJ
 L  R0      
 E  R1      
 E  R2      
 E  R3      
 E  R4      
 E  R5      
 E  R6      
 E  R7      
 E  R8      
 E  R9      
 E  R10     
 E  R11     
 E  R12     
 E  R13     
 E  R14     
 E  R15     
COLUMNS
    MARKER    'MARKER'                 'INTORG'
    I0(8)     OBJ       125
    I0(8)     R0        -176
    I0(8)     R1        16
    I0(8)     R2        9
    I0(8)     R3        2
    I0(8)     R5        2
    I0(8)     R6        1
    I0(8)     R7        19
    I0(8)     R15       1
    I1(8)     OBJ       -78
    I1(8)     R0        197
    I1(8)     R1        -1
    I1(8)     R3        18
    I1(8)     R4        19
    I1(8)     R5        2
    I1(8)     R6        6
    I1(8)     R9        15
    I1(8)     R15       1
    I2(10)    OBJ       -28
    I2(10)    R0        90
    I2(10)    R1        12
    I2(10)    R2        7
    I2(10)    R3        19
    I2(10)    R4        14
    I2(10)    R6        16
    I2(10)    R7        5
    I2(10)    R8        8
    I2(10)    R9        3
    I2(10)    R15       1
    I3(9)     OBJ       -100
    I3(9)     R0        -112
    I3(9)     R2        5
    I3(9)     R3        2
    I3(9)     R4        -1
    I3(9)     R5        7
    I3(9)     R6        15
    I3(9)     R7        14
    I3(9)     R9        5
    I3(9)     R15       1
    I4(10)    OBJ       68
    I4(10)    R0        110
    I4(10)    R1        3
    I4(10)    R2        6
    I4(10)    R3        11
    I4(10)    R4        6
    I4(10)    R5        17
    I4(10)    R6        2
    I4(10)    R7        9
    I4(10)    R9        8
    I4(10)    R15       1
    I5(9)     OBJ       -59
    I5(9)     R0        105
    I5(9)     R1        5
    I5(9)     R2        9
    I5(9)     R3        12
    I5(9)     R6        3
    I5(9)     R7        6
    I5(9)     R8        12
    I5(9)     R9        14
    I5(9)     R15       1
    I6(8)     OBJ       -93
    I6(8)     R0        -66
    I6(8)     R2        -1
    I6(8)     R4        5
    I6(8)     R5        3
    I6(8)     R6        9
    I6(8)     R8        4
    I6(8)     R9        10
    I6(8)     R15       1
    I7(10)    OBJ       31
    I7(10)    R0        -128
    I7(10)    R2        16
    I7(10)    R3        6
    I7(10)    R4        3
    I7(10)    R5        15
    I7(10)    R6        8
    I7(10)    R7        6
    I7(10)    R8        18
    I7(10)    R9        2
    I7(10)    R15       1
    I8(9)     OBJ       42
    I8(9)     R0        -160
    I8(9)     R1        17
    I8(9)     R4        14
    I8(9)     R5        10
    I8(9)     R6        17
    I8(9)     R7        17
    I8(9)     R8        11
    I8(9)     R9        11
    I8(9)     R15       1
    MARKER    'MARKER'                 'INTEND'
    C9(11)    OBJ       4
    C9(11)    R0        -8
    C9(11)    R2        8
    C9(11)    R3        9
    C9(11)    R4        14
    C9(11)    R5        1
    C9(11)    R6        11
    C9(11)    R7        10
    C9(11)    R10       7
    C9(11)    R11       2
    C9(11)    R12       3
    C9(11)    R14       7
    C10(11)   OBJ       -7
    C10(11)   R0        -8
    C10(11)   R1        16
    C10(11)   R2        7
    C10(11)   R4        3
    C10(11)   R5        18
    C10(11)   R6        18
    C10(11)   R7        15
    C10(11)   R9        17
    C10(11)   R11       16
    C10(11)   R12       12
    C10(11)   R14       19
    C11(13)   OBJ       5
    C11(13)   R0        -6
    C11(13)   R1        9
    C11(13)   R3        14
    C11(13)   R4        -1
    C11(13)   R5        7
    C11(13)   R6        5
    C11(13)   R7        15
    C11(13)   R9        2
    C11(13)   R10       1
    C11(13)   R11       12
    C11(13)   R12       5
    C11(13)   R13       10
    C11(13)   R14       10
    C12(13)   OBJ       -6
    C12(13)   R0        8
    C12(13)   R1        2
    C12(13)   R2        15
    C12(13)   R3        9
    C12(13)   R4        8
    C12(13)   R5        -1
    C12(13)   R6        10
    C12(13)   R8        19
    C12(13)   R9        4
    C12(13)   R10       3
    C12(13)   R12       12
    C12(13)   R13       7
    C12(13)   R14       5
    C13(11)   OBJ       -10
    C13(11)   R0        -6
    C13(11)   R1        1
    C13(11)   R2        7
    C13(11)   R3        6
    C13(11)   R6        14
    C13(11)   R7        19
    C13(11)   R9        16
    C13(11)   R11       1
    C13(11)   R12       13
    C13(11)   R13       3
    C13(11)   R14       8
    C14(10)   OBJ       -2
    C14(10)   R0        -7
    C14(10)   R1        10
    C14(10)   R3        8
    C14(10)   R6        15
    C14(10)   R7        14
    C14(10)   R8        17
    C14(10)   R9        12
    C14(10)   R10       10
    C14(10)   R11       10
    C14(10)   R13       2
    C15(1)    R1        1
    C16(1)    R2        1
    C17(1)    R3        1
    C18(1)    R4        1
    C19(1)    R5        1
    C20(1)    R6        1
    C21(1)    R7        1
    C22(1)    R8        1
    C23(1)    R9        1
    C24(1)    R10       1
    C25(1)    R11       1
    C26(1)    R12       1
    C27(1)    R13       1
    C28(1)    R14       1
    C29(1)    R15       1
RHS
    RHS1      R0        3.1405660377358419e+01
    RHS1      R1        92
    RHS1      R2        53
    RHS1      R3        67
    RHS1      R4        62
    RHS1      R5        56
    RHS1      R6        78
    RHS1      R7        99
    RHS1      R8        92
    RHS1      R9        63
    RHS1      R10       76
    RHS1      R11       66
    RHS1      R12       50
    RHS1      R13       98
    RHS1      R14       64
    RHS1      R15       3
BOUNDS
 UP BND1      I0(8)     1
 UP BND1      I1(8)     1
 UP BND1      I2(10)    1
 UP BND1      I3(9)     1
 UP BND1      I4(10)    1
 UP BND1      I5(9)     1
 UP BND1      I6(8)     1
 UP BND1      I7(10)    1
 UP BND1      I8(9)     1
ENDATA
